(set-option :produce-proofs true)
(declare-const size Int)
(declare-const x000 Int)
(assert (< x000 2))
(assert (>= x000 0))
(declare-const x001 Int)
(assert (< x001 2))
(assert (>= x001 0))
(declare-const x002 Int)
(assert (< x002 2))
(assert (>= x002 0))
(declare-const x003 Int)
(assert (< x003 2))
(assert (>= x003 0))
(declare-const x004 Int)
(assert (< x004 2))
(assert (>= x004 0))
(declare-const x005 Int)
(assert (< x005 2))
(assert (>= x005 0))
(declare-const x006 Int)
(assert (< x006 2))
(assert (>= x006 0))
(declare-const x007 Int)
(assert (< x007 2))
(assert (>= x007 0))
(declare-const x008 Int)
(assert (< x008 2))
(assert (>= x008 0))
(declare-const x009 Int)
(assert (< x009 2))
(assert (>= x009 0))
(declare-const x010 Int)
(assert (< x010 2))
(assert (>= x010 0))
(declare-const x011 Int)
(assert (< x011 2))
(assert (>= x011 0))
(declare-const x012 Int)
(assert (< x012 2))
(assert (>= x012 0))
(declare-const x013 Int)
(assert (< x013 2))
(assert (>= x013 0))
(declare-const x014 Int)
(assert (< x014 2))
(assert (>= x014 0))
(declare-const x015 Int)
(assert (< x015 2))
(assert (>= x015 0))
(declare-const x016 Int)
(assert (< x016 2))
(assert (>= x016 0))
(declare-const x017 Int)
(assert (< x017 2))
(assert (>= x017 0))
(declare-const x018 Int)
(assert (< x018 2))
(assert (>= x018 0))
(declare-const x019 Int)
(assert (< x019 2))
(assert (>= x019 0))
(declare-const x020 Int)
(assert (< x020 2))
(assert (>= x020 0))
(declare-const x021 Int)
(assert (< x021 2))
(assert (>= x021 0))
(declare-const x022 Int)
(assert (< x022 2))
(assert (>= x022 0))
(declare-const x023 Int)
(assert (< x023 2))
(assert (>= x023 0))
(declare-const x024 Int)
(assert (< x024 2))
(assert (>= x024 0))
(declare-const x025 Int)
(assert (< x025 2))
(assert (>= x025 0))
(declare-const x026 Int)
(assert (< x026 2))
(assert (>= x026 0))
(declare-const x027 Int)
(assert (< x027 2))
(assert (>= x027 0))
(declare-const x028 Int)
(assert (< x028 2))
(assert (>= x028 0))
(declare-const x029 Int)
(assert (< x029 2))
(assert (>= x029 0))
(assert (= size (+ x000 x001 x002 x003 x004 x005 x006 x007 x008 x009 x010 x011 x012 x013 x014 x015 x016 x017 x018 x019 x020 x021 x022 x023 x024 x025 x026 x027 x028 x029)))
(assert (> 3 (+ x000 x001 x002)))
(assert (> 3 (+ x000 x002 x004)))
(assert (> 3 (+ x000 x003 x006)))
(assert (> 3 (+ x000 x004 x008)))
(assert (> 3 (+ x000 x005 x010)))
(assert (> 3 (+ x000 x006 x012)))
(assert (> 3 (+ x000 x007 x014)))
(assert (> 3 (+ x000 x008 x016)))
(assert (> 3 (+ x000 x009 x018)))
(assert (> 3 (+ x000 x010 x020)))
(assert (> 3 (+ x000 x011 x022)))
(assert (> 3 (+ x000 x012 x024)))
(assert (> 3 (+ x000 x013 x026)))
(assert (> 3 (+ x000 x014 x028)))
(assert (> 3 (+ x001 x002 x003)))
(assert (> 3 (+ x001 x003 x005)))
(assert (> 3 (+ x001 x004 x007)))
(assert (> 3 (+ x001 x005 x009)))
(assert (> 3 (+ x001 x006 x011)))
(assert (> 3 (+ x001 x007 x013)))
(assert (> 3 (+ x001 x008 x015)))
(assert (> 3 (+ x001 x009 x017)))
(assert (> 3 (+ x001 x010 x019)))
(assert (> 3 (+ x001 x011 x021)))
(assert (> 3 (+ x001 x012 x023)))
(assert (> 3 (+ x001 x013 x025)))
(assert (> 3 (+ x001 x014 x027)))
(assert (> 3 (+ x001 x015 x029)))
(assert (> 3 (+ x002 x003 x004)))
(assert (> 3 (+ x002 x004 x006)))
(assert (> 3 (+ x002 x005 x008)))
(assert (> 3 (+ x002 x006 x010)))
(assert (> 3 (+ x002 x007 x012)))
(assert (> 3 (+ x002 x008 x014)))
(assert (> 3 (+ x002 x009 x016)))
(assert (> 3 (+ x002 x010 x018)))
(assert (> 3 (+ x002 x011 x020)))
(assert (> 3 (+ x002 x012 x022)))
(assert (> 3 (+ x002 x013 x024)))
(assert (> 3 (+ x002 x014 x026)))
(assert (> 3 (+ x002 x015 x028)))
(assert (> 3 (+ x003 x004 x005)))
(assert (> 3 (+ x003 x005 x007)))
(assert (> 3 (+ x003 x006 x009)))
(assert (> 3 (+ x003 x007 x011)))
(assert (> 3 (+ x003 x008 x013)))
(assert (> 3 (+ x003 x009 x015)))
(assert (> 3 (+ x003 x010 x017)))
(assert (> 3 (+ x003 x011 x019)))
(assert (> 3 (+ x003 x012 x021)))
(assert (> 3 (+ x003 x013 x023)))
(assert (> 3 (+ x003 x014 x025)))
(assert (> 3 (+ x003 x015 x027)))
(assert (> 3 (+ x003 x016 x029)))
(assert (> 3 (+ x004 x005 x006)))
(assert (> 3 (+ x004 x006 x008)))
(assert (> 3 (+ x004 x007 x010)))
(assert (> 3 (+ x004 x008 x012)))
(assert (> 3 (+ x004 x009 x014)))
(assert (> 3 (+ x004 x010 x016)))
(assert (> 3 (+ x004 x011 x018)))
(assert (> 3 (+ x004 x012 x020)))
(assert (> 3 (+ x004 x013 x022)))
(assert (> 3 (+ x004 x014 x024)))
(assert (> 3 (+ x004 x015 x026)))
(assert (> 3 (+ x004 x016 x028)))
(assert (> 3 (+ x005 x006 x007)))
(assert (> 3 (+ x005 x007 x009)))
(assert (> 3 (+ x005 x008 x011)))
(assert (> 3 (+ x005 x009 x013)))
(assert (> 3 (+ x005 x010 x015)))
(assert (> 3 (+ x005 x011 x017)))
(assert (> 3 (+ x005 x012 x019)))
(assert (> 3 (+ x005 x013 x021)))
(assert (> 3 (+ x005 x014 x023)))
(assert (> 3 (+ x005 x015 x025)))
(assert (> 3 (+ x005 x016 x027)))
(assert (> 3 (+ x005 x017 x029)))
(assert (> 3 (+ x006 x007 x008)))
(assert (> 3 (+ x006 x008 x010)))
(assert (> 3 (+ x006 x009 x012)))
(assert (> 3 (+ x006 x010 x014)))
(assert (> 3 (+ x006 x011 x016)))
(assert (> 3 (+ x006 x012 x018)))
(assert (> 3 (+ x006 x013 x020)))
(assert (> 3 (+ x006 x014 x022)))
(assert (> 3 (+ x006 x015 x024)))
(assert (> 3 (+ x006 x016 x026)))
(assert (> 3 (+ x006 x017 x028)))
(assert (> 3 (+ x007 x008 x009)))
(assert (> 3 (+ x007 x009 x011)))
(assert (> 3 (+ x007 x010 x013)))
(assert (> 3 (+ x007 x011 x015)))
(assert (> 3 (+ x007 x012 x017)))
(assert (> 3 (+ x007 x013 x019)))
(assert (> 3 (+ x007 x014 x021)))
(assert (> 3 (+ x007 x015 x023)))
(assert (> 3 (+ x007 x016 x025)))
(assert (> 3 (+ x007 x017 x027)))
(assert (> 3 (+ x007 x018 x029)))
(assert (> 3 (+ x008 x009 x010)))
(assert (> 3 (+ x008 x010 x012)))
(assert (> 3 (+ x008 x011 x014)))
(assert (> 3 (+ x008 x012 x016)))
(assert (> 3 (+ x008 x013 x018)))
(assert (> 3 (+ x008 x014 x020)))
(assert (> 3 (+ x008 x015 x022)))
(assert (> 3 (+ x008 x016 x024)))
(assert (> 3 (+ x008 x017 x026)))
(assert (> 3 (+ x008 x018 x028)))
(assert (> 3 (+ x009 x010 x011)))
(assert (> 3 (+ x009 x011 x013)))
(assert (> 3 (+ x009 x012 x015)))
(assert (> 3 (+ x009 x013 x017)))
(assert (> 3 (+ x009 x014 x019)))
(assert (> 3 (+ x009 x015 x021)))
(assert (> 3 (+ x009 x016 x023)))
(assert (> 3 (+ x009 x017 x025)))
(assert (> 3 (+ x009 x018 x027)))
(assert (> 3 (+ x009 x019 x029)))
(assert (> 3 (+ x010 x011 x012)))
(assert (> 3 (+ x010 x012 x014)))
(assert (> 3 (+ x010 x013 x016)))
(assert (> 3 (+ x010 x014 x018)))
(assert (> 3 (+ x010 x015 x020)))
(assert (> 3 (+ x010 x016 x022)))
(assert (> 3 (+ x010 x017 x024)))
(assert (> 3 (+ x010 x018 x026)))
(assert (> 3 (+ x010 x019 x028)))
(assert (> 3 (+ x011 x012 x013)))
(assert (> 3 (+ x011 x013 x015)))
(assert (> 3 (+ x011 x014 x017)))
(assert (> 3 (+ x011 x015 x019)))
(assert (> 3 (+ x011 x016 x021)))
(assert (> 3 (+ x011 x017 x023)))
(assert (> 3 (+ x011 x018 x025)))
(assert (> 3 (+ x011 x019 x027)))
(assert (> 3 (+ x011 x020 x029)))
(assert (> 3 (+ x012 x013 x014)))
(assert (> 3 (+ x012 x014 x016)))
(assert (> 3 (+ x012 x015 x018)))
(assert (> 3 (+ x012 x016 x020)))
(assert (> 3 (+ x012 x017 x022)))
(assert (> 3 (+ x012 x018 x024)))
(assert (> 3 (+ x012 x019 x026)))
(assert (> 3 (+ x012 x020 x028)))
(assert (> 3 (+ x013 x014 x015)))
(assert (> 3 (+ x013 x015 x017)))
(assert (> 3 (+ x013 x016 x019)))
(assert (> 3 (+ x013 x017 x021)))
(assert (> 3 (+ x013 x018 x023)))
(assert (> 3 (+ x013 x019 x025)))
(assert (> 3 (+ x013 x020 x027)))
(assert (> 3 (+ x013 x021 x029)))
(assert (> 3 (+ x014 x015 x016)))
(assert (> 3 (+ x014 x016 x018)))
(assert (> 3 (+ x014 x017 x020)))
(assert (> 3 (+ x014 x018 x022)))
(assert (> 3 (+ x014 x019 x024)))
(assert (> 3 (+ x014 x020 x026)))
(assert (> 3 (+ x014 x021 x028)))
(assert (> 3 (+ x015 x016 x017)))
(assert (> 3 (+ x015 x017 x019)))
(assert (> 3 (+ x015 x018 x021)))
(assert (> 3 (+ x015 x019 x023)))
(assert (> 3 (+ x015 x020 x025)))
(assert (> 3 (+ x015 x021 x027)))
(assert (> 3 (+ x015 x022 x029)))
(assert (> 3 (+ x016 x017 x018)))
(assert (> 3 (+ x016 x018 x020)))
(assert (> 3 (+ x016 x019 x022)))
(assert (> 3 (+ x016 x020 x024)))
(assert (> 3 (+ x016 x021 x026)))
(assert (> 3 (+ x016 x022 x028)))
(assert (> 3 (+ x017 x018 x019)))
(assert (> 3 (+ x017 x019 x021)))
(assert (> 3 (+ x017 x020 x023)))
(assert (> 3 (+ x017 x021 x025)))
(assert (> 3 (+ x017 x022 x027)))
(assert (> 3 (+ x017 x023 x029)))
(assert (> 3 (+ x018 x019 x020)))
(assert (> 3 (+ x018 x020 x022)))
(assert (> 3 (+ x018 x021 x024)))
(assert (> 3 (+ x018 x022 x026)))
(assert (> 3 (+ x018 x023 x028)))
(assert (> 3 (+ x019 x020 x021)))
(assert (> 3 (+ x019 x021 x023)))
(assert (> 3 (+ x019 x022 x025)))
(assert (> 3 (+ x019 x023 x027)))
(assert (> 3 (+ x019 x024 x029)))
(assert (> 3 (+ x020 x021 x022)))
(assert (> 3 (+ x020 x022 x024)))
(assert (> 3 (+ x020 x023 x026)))
(assert (> 3 (+ x020 x024 x028)))
(assert (> 3 (+ x021 x022 x023)))
(assert (> 3 (+ x021 x023 x025)))
(assert (> 3 (+ x021 x024 x027)))
(assert (> 3 (+ x021 x025 x029)))
(assert (> 3 (+ x022 x023 x024)))
(assert (> 3 (+ x022 x024 x026)))
(assert (> 3 (+ x022 x025 x028)))
(assert (> 3 (+ x023 x024 x025)))
(assert (> 3 (+ x023 x025 x027)))
(assert (> 3 (+ x023 x026 x029)))
(assert (> 3 (+ x024 x025 x026)))
(assert (> 3 (+ x024 x026 x028)))
(assert (> 3 (+ x025 x026 x027)))
(assert (> 3 (+ x025 x027 x029)))
(assert (> 3 (+ x026 x027 x028)))
(assert (> 3 (+ x027 x028 x029)))
(assert (>= size 13))
(check-sat)
(get-proof)
